836 770 792 788 772
848 873 686 693 873
832 624 606 606 712
893 877 881 613 623
695 637 745 703 692
889 675 768 693 629
727 676 892 739 790
763 814 683 623 778
778 808 693 609 811
757 617 872 646 855
